n_res = 4;
rcap = [20, 18, 93, 112];
rtype = [1, 1, 2, 2];
n_tasks = 20;
modes = [ {1, 2, 3}, {4, 5, 6}, {7, 8, 9}, {10, 11, 12}, {13, 14, 15}, {16, 17, 18}, {19, 20, 21}, {22, 23, 24}, {25, 26, 27}, {28, 29, 30}, {31, 32, 33}, {34, 35, 36}, {37, 38, 39}, {40, 41, 42}, {43, 44, 45}, {46, 47, 48}, {49, 50, 51}, {52, 53, 54}, {55, 56, 57}, {58, 59, 60} ];
succ = [ {4, 5}, {9, 14, 19}, {16, 18, 19}, {6, 10, 11}, {7, 9, 14}, {8, 15, 19}, {12, 17}, {12, 13}, {15, 20}, {14}, {13, 16}, {16}, {17, 20}, {15, 17}, {18}, {20}, {18}, {}, {}, {} ];
n_opt = 60;
dur = [4, 5, 8, 1, 1, 3, 3, 6, 7, 5, 8, 9, 2, 2, 3, 8, 9, 9, 8, 9, 10, 1, 7, 8, 2, 8, 10, 4, 7, 8, 1, 4, 10, 2, 9, 10, 1, 9, 10, 1, 4, 9, 1, 8, 9, 2, 8, 8, 2, 4, 4, 1, 5, 6, 6, 8, 10, 5, 6, 9];
rreq = [|  4,  3,  0,  0,  6,  5,  0,  0,  0,  0,  0,  0,  0,  2,  2,  2,  2,  1,  8,  0,  5, 10,  0,  0,  0,  2,  2,  0,  4,  4,  3,  2,  0,  9,  8,  6,  3,  0,  0,  0,  9,  6,  0,  4,  4,  8,  0,  8,  0,  5,  0,  7,  0,  0,  4,  0,  0,  5,  0,  4
        |  0,  0,  6,  2,  0,  0,  7,  6,  5,  4,  4,  1,  4,  0,  0,  0,  0,  0,  0,  7,  0,  0,  6,  3,  6,  0,  0,  1,  0,  0,  0,  0,  6,  0,  0,  0,  0,  5,  1,  9,  0,  0,  2,  0,  0,  0,  8,  0,  9,  0,  9,  0,  9,  6,  0,  6,  2,  0,  6,  0
        |  0,  0,  0,  0,  4,  3,  0,  0,  4,  7,  0,  0,  3,  0,  0,  3,  0,  2,  0,  6,  0,  0,  0,  4,  9,  8,  6,  9,  7,  2,  5,  3,  0, 10,  0,  9,  0,  0,  0,  4,  3,  2,  0,  7,  0,  5,  0,  0,  5,  0,  0,  0,  0,  0,  0,  4,  0,  0,  4,  0
        | 10,  9,  9,  2,  0,  0,  7,  5,  0,  0,  8,  6,  0,  9,  7,  0,  2,  0,  4,  0,  4,  9,  9,  0,  0,  0,  0,  0,  0,  0,  0,  0,  9,  0,  8,  0,  3,  3,  2,  0,  0,  0,  9,  0,  8,  0,  8,  6,  0,  5,  6,  8,  8,  8,  6,  0,  6,  4,  0,  3 |];
